30
2
20197
774 277
false
0.25
13 33 50 4 34 37 14 8 19 46 16 24 29 45 10 32 18 16 35 26 44 48 45 46 19 4 16 44 46 45
19 49 35 33 33 33 22 40 50 10 30 38 39 23 37 20 38 42 32 38 25 19 3 33 48 38 25 47 27 13
71 70 6 90 44 78 50 9 19 89 35 90 92 25 41 85 2 65 62 2 1 15 81 62 58 23 8 91 92 63
0 0 0 0 0 0 0 0 0 0 63 72 0 0 95 0 0 0 0 0 0 0 2 0 67 0 0 78 0 0
0 0 0 81 24 0 0 0 0 0 55 0 0 21 0 0 90 0 0 0 0 0 0 0 0 0 0 0 0
0 0 0 0 0 0 67 0 0 43 36 71 29 0 96 0 0 1 0 0 0 20 0 0 0 0 0 0
0 0 0 0 8 33 0 46 0 0 0 0 0 0 25 0 44 0 61 0 0 31 0 0 0 0 0
0 0 0 94 0 0 0 0 0 0 66 0 37 0 0 0 0 0 26 0 85 0 0 0 0 0
0 0 0 0 61 0 8 0 0 0 0 58 53 86 0 0 0 14 0 0 0 0 89 0 0
0 0 0 88 0 0 0 0 95 0 0 0 0 0 93 27 0 0 0 0 69 0 0 70
0 0 0 0 0 0 0 0 0 0 0 0 0 0 0 0 0 0 0 0 0 73 0
0 0 0 0 0 0 37 0 0 0 0 0 0 71 41 0 0 0 0 0 0 0
0 0 30 0 0 0 0 0 0 0 0 0 0 0 25 88 0 94 0 0 0
0 0 12 0 32 0 13 76 0 0 0 0 0 0 0 72 0 0 66 0
0 0 0 47 0 0 0 0 0 0 3 0 0 0 0 0 0 0 0
0 0 0 0 0 39 0 0 0 0 88 0 32 0 0 0 0 45
0 0 0 0 0 0 0 0 87 41 3 0 0 0 0 15 0
0 12 0 0 0 0 88 0 27 0 0 81 0 0 0 0
0 16 0 25 0 0 0 0 0 0 0 0 0 0 55
0 88 0 0 0 0 0 0 0 0 43 0 52 0
0 90 0 52 0 0 64 73 0 0 0 71 0
0 0 0 45 0 0 86 0 0 82 0 53
0 0 85 0 74 0 33 0 0 0 0
0 0 88 0 0 0 49 0 46 51
0 94 39 0 63 0 47 0 0
0 43 0 0 0 8 98 0
0 56 0 0 31 0 0
0 0 0 0 0 0
0 0 0 0 0
0 50 7 0
0 0 2
0 0
0 0 0 66 0 0 0 0 0 17 94 0 0 0 0 0 0 0 97 0 0 0 0 0 0 60 0 0 0
0 90 9 0 0 0 0 0 0 0 28 0 0 0 0 0 13 63 0 26 0 0 0 0 60 0 0 85
0 0 0 0 0 63 0 0 0 0 0 0 0 5 0 41 93 0 0 0 0 0 0 0 0 0 31
0 0 2 0 0 0 0 0 0 0 51 0 0 0 14 0 90 0 47 0 0 0 0 0 0 0
0 0 0 0 0 0 0 0 0 42 0 0 0 0 58 0 0 0 0 0 0 21 0 0 47
0 0 14 1 0 0 0 0 0 0 0 93 25 0 0 0 0 0 0 25 0 9 0 0
0 0 0 0 62 0 0 0 0 0 0 0 1 0 0 42 0 0 0 0 0 0 85
0 44 44 0 0 0 0 0 0 0 0 0 0 0 0 0 1 0 53 0 0 77
0 76 0 0 0 13 0 88 0 60 0 71 0 0 0 0 31 28 0 0 0
0 17 0 99 0 0 0 0 0 0 0 0 0 0 69 0 54 0 0 0
0 27 0 0 0 35 41 40 0 0 0 76 0 0 0 0 0 86 0
0 0 0 0 0 20 0 0 0 0 0 60 0 0 0 0 0 32
0 0 0 99 0 0 0 0 41 0 0 94 0 0 0 83 0
0 0 0 0 0 1 0 0 0 35 0 59 0 0 0 0
0 0 0 0 88 0 0 0 0 16 61 0 40 95 98
0 0 0 0 100 0 49 0 72 41 0 0 8 0
0 0 0 0 0 0 39 85 6 0 12 0 0
0 40 16 0 33 0 19 0 0 0 0 0
0 0 19 0 0 0 0 0 14 0 0
0 14 0 0 0 0 0 0 18 0
0 0 0 32 0 0 0 0 33
0 87 0 80 0 0 18 0
0 0 0 41 53 0 0
0 0 0 0 48 0
0 0 19 0 0
0 41 87 0
0 18 0
0 0
0
0 0 0 0 0 0 0 0 51 12 70 0 0 0 0 71 0 0 47 0 87 0 0 0 0 35 97 0
0 0 0 0 0 0 0 0 20 30 0 34 0 0 0 0 0 0 87 80 0 0 10 0 50 33 0
0 0 39 2 0 0 25 0 0 91 0 44 0 74 0 0 0 0 0 0 0 0 18 0 0 0
0 0 0 78 0 0 0 0 0 55 0 99 96 0 37 0 91 0 0 0 0 13 0 46 0
0 0 0 0 0 0 23 0 88 0 78 0 0 0 0 0 52 0 0 0 0 33 0 0
0 37 0 0 0 71 0 0 0 0 0 90 0 57 22 0 0 0 73 0 0 0 52
0 0 13 0 0 6 0 0 0 0 77 0 0 0 46 0 0 0 19 0 0 0
0 0 65 0 0 0 61 0 0 0 0 0 0 0 97 0 0 0 19 0 0
0 0 0 0 0 0 0 0 0 0 73 0 0 48 56 36 0 0 0 0
0 0 0 0 0 0 78 0 61 0 0 100 0 38 0 0 25 0 0
0 0 0 51 7 0 0 0 45 48 0 0 0 0 49 80 0 0
0 0 0 0 0 0 9 14 0 0 69 0 29 60 0 80 0
0 9 0 12 0 0 24 0 41 0 0 0 0 0 61 0
0 0 0 0 0 0 7 38 0 0 52 61 0 0 0
0 79 0 0 90 2 0 0 0 0 0 0 22 55
0 0 10 16 0 0 0 0 0 19 0 0 0
0 0 94 21 0 0 0 0 0 42 0 39
0 22 19 0 0 58 0 0 0 0 84
0 0 0 0 0 0 0 0 0 0
0 2 0 0 0 42 0 0 0
0 0 23 0 0 94 0 0
0 0 0 0 0 0 0
0 82 0 30 0 17
0 68 83 0 0
0 0 0 0
0 10 31
0 0
0
0 0 0 0 0 0 0 77 0 0 0 0 63 0 0 0 0 0 0 0 70 0 0 0 0 0 0
0 64 0 0 0 0 0 0 34 0 0 0 57 47 0 0 0 0 0 0 0 0 0 0 0 0
0 52 42 0 0 0 17 0 0 0 22 0 0 0 0 0 0 0 0 0 0 3 0 0 0
0 0 0 0 32 0 0 60 0 0 0 0 0 10 0 0 0 44 0 0 0 0 0 0
0 0 0 15 0 0 0 0 70 62 0 0 0 0 54 0 0 0 74 0 0 0 0
0 35 0 0 0 43 70 0 0 0 0 67 0 0 0 0 0 0 0 0 0 0
0 0 0 0 1 0 0 0 0 86 0 0 0 0 96 0 0 0 0 0 0
0 0 0 0 0 0 0 0 0 0 0 77 25 0 0 10 0 0 0 0
0 0 0 0 22 3 74 0 0 0 70 0 77 0 0 0 0 21 0
0 0 0 0 0 0 0 0 54 0 0 63 0 0 12 0 0 0
0 11 0 0 0 0 0 0 0 0 0 0 0 8 0 0 0
0 0 0 0 0 0 0 84 29 0 0 0 61 0 0 0
0 0 0 0 0 0 59 0 0 0 0 0 0 0 0
0 0 0 10 0 0 0 0 0 0 5 0 21 67
0 42 0 0 0 0 0 0 0 0 0 31 0
0 0 0 0 0 0 89 0 0 0 5 0
0 10 0 0 86 0 0 0 0 0 0
0 0 0 0 0 0 0 0 0 0
0 78 62 0 0 0 0 0 0
0 0 0 34 0 0 0 0
0 0 44 0 55 0 0
0 0 0 0 0 0
0 0 0 0 0
0 54 0 0
0 0 22
0 0
0
0 0 0 0 0 0 81 77 0 0 0 62 39 0 0 0 0 0 36 0 0 13 54 0 0 0
0 0 39 0 0 0 0 71 0 0 0 0 0 0 0 0 0 0 57 79 0 33 0 2 0
0 11 0 0 0 92 0 0 9 0 0 39 38 0 35 85 0 23 0 0 0 0 35 0
0 0 0 0 0 0 46 0 0 35 0 0 0 16 0 40 0 88 0 0 0 0 0
0 0 0 0 2 0 0 0 0 37 0 0 0 0 0 0 52 69 0 0 1 0
0 0 0 0 0 71 21 0 36 50 0 0 0 0 0 0 0 19 0 0 0
0 27 0 0 0 0 66 0 0 0 0 57 0 0 0 49 0 23 83 0
0 92 0 13 0 0 0 0 0 0 71 0 0 0 93 0 0 36 0
0 9 0 0 78 50 0 0 0 0 0 0 0 0 0 11 0 0
0 0 0 28 27 0 0 0 0 0 20 0 0 0 0 0 0
0 0 95 0 0 65 0 0 13 9 0 0 0 0 0 47
0 0 0 0 68 0 30 0 83 0 49 0 89 0 0
0 0 0 0 64 95 70 52 26 0 0 56 60 0
0 0 0 95 7 7 0 0 0 0 0 0 0
0 0 0 80 0 93 0 0 12 49 0 89
0 0 0 0 0 12 0 67 0 0 55
0 0 14 29 0 0 0 0 0 0
0 0 0 0 16 0 0 0 39
0 0 0 68 0 0 0 0
0 38 0 0 0 0 0
0 68 0 0 0 40
0 0 0 50 0
0 0 0 0
0 58 71
0 0
0
0 90 0 0 8 96 0 0 0 0 0 0 0 0 75 0 88 0 0 0 80 0 0 26 91
0 0 0 44 54 0 0 75 0 52 0 0 0 93 8 67 41 0 0 0 0 0 0 80
0 0 0 0 0 58 0 0 0 0 0 0 0 0 0 57 57 0 100 69 0 0 0
0 0 0 0 0 56 0 0 0 0 26 0 0 0 0 36 75 0 0 0 0 0
0 0 0 0 0 35 51 82 0 0 0 0 57 0 0 0 0 0 0 0 0
0 32 0 0 0 51 0 0 0 86 0 51 36 0 0 0 0 0 0 0
0 0 0 0 0 0 27 38 0 0 0 0 0 0 0 0 85 0 0
0 0 0 0 0 4 0 0 74 0 0 0 93 0 53 0 0 0
0 49 0 0 0 0 0 0 0 62 67 26 0 0 11 1 0
0 0 11 0 0 0 99 0 0 0 0 0 61 0 0 0
0 0 0 0 0 0 57 0 0 0 0 58 39 0 0
0 0 0 0 0 0 69 0 0 0 36 0 0 0
0 67 25 0 0 0 0 0 32 0 0 0 96
0 0 0 2 0 0 0 0 0 49 94 0
0 0 0 0 0 0 0 0 0 0 0
0 0 0 0 0 23 8 0 0 0
0 0 0 0 14 72 37 0 49
0 0 0 0 0 23 32 0
0 95 0 0 0 0 13
0 0 0 0 0 0
0 0 0 0 0
0 93 0 20
0 0 14
0 0
0
0 64 34 0 0 60 38 0 0 48 0 72 84 59 0 0 0 0 0 0 55 72 80 0
0 0 0 0 25 2 0 0 0 0 93 0 0 0 0 0 0 0 0 0 0 0 0
0 0 0 0 0 0 0 52 0 0 0 0 0 67 0 0 57 0 0 0 0 0
0 0 0 0 0 0 40 80 0 0 0 0 0 20 0 0 14 0 0 0 0
0 85 0 58 0 0 0 0 0 0 17 0 87 0 0 0 0 0 0 0
0 55 65 0 0 0 22 0 0 0 12 0 0 0 21 0 0 0 0
0 0 0 0 0 0 0 0 0 16 55 0 33 0 92 0 0 0
0 0 0 0 0 0 0 0 0 0 0 10 28 72 0 0 0
0 17 4 0 45 0 0 0 0 0 0 0 0 0 0 0
0 7 7 0 0 0 0 0 0 0 0 73 43 0 7
0 0 0 0 0 0 0 0 50 0 0 0 0 11
0 0 0 0 0 0 0 46 0 0 0 0 0
0 0 15 0 0 34 0 59 0 0 81 45
0 0 24 0 0 4 0 63 0 64 0
0 0 0 100 0 0 2 72 49 0
0 0 0 0 0 0 60 42 0
0 0 38 19 0 74 18 0
0 0 34 0 0 34 0
0 19 0 0 36 0
0 19 0 0 0
0 0 84 0
0 0 0
0 85
0
0 0 0 0 0 0 9 0 0 0 34 9 0 0 0 0 77 0 0 0 50 0 0
0 0 0 0 0 94 48 0 79 0 62 0 84 0 0 0 0 0 26 0 55 0
0 0 0 0 59 0 0 84 0 87 0 0 0 0 2 0 0 67 0 0 96
0 89 89 0 0 0 0 57 37 0 0 0 0 0 0 0 67 0 37 0
0 0 0 0 0 0 0 0 0 0 0 77 0 0 0 0 0 0 0
0 0 0 17 0 0 0 73 0 86 0 14 0 0 0 62 0 16
0 0 88 0 0 11 0 0 0 0 0 0 0 0 0 74 0
0 99 0 0 0 0 100 0 38 0 0 0 0 0 0 0
0 0 0 50 0 0 68 15 0 36 91 0 0 0 0
0 0 0 0 5 0 42 0 0 74 0 0 0 98
0 0 0 0 66 58 29 0 0 0 0 83 13
0 0 0 0 0 0 14 0 0 0 0 0
0 14 0 0 0 0 0 0 0 0 0
0 0 0 0 88 0 0 6 0 0
0 0 0 0 0 28 40 0 78
0 0 0 38 84 37 0 0
0 55 0 0 0 0 0
0 0 0 0 0 0
0 22 24 0 69
0 44 0 12
0 0 86
0 0
0
0 11 0 0 0 0 0 0 0 0 0 0 0 0 93 38 0 0 0 1 0 0
0 0 0 44 61 68 62 0 0 0 5 5 0 82 0 0 0 65 0 0 0
0 62 0 0 0 0 0 0 0 0 0 0 0 0 43 0 94 0 0 0
0 66 25 76 0 0 0 66 0 0 0 0 0 0 0 70 0 0 0
0 0 0 26 0 77 0 0 0 0 71 0 0 0 0 34 19 85
0 0 75 0 0 0 0 0 0 40 0 0 0 0 0 0 0
0 0 0 0 49 63 91 0 0 0 0 0 0 0 0 0
0 0 0 0 0 0 0 94 54 0 0 0 93 0 0
0 85 0 0 0 0 0 59 0 0 95 0 0 75
0 0 61 0 0 0 0 75 0 0 0 0 0
0 0 0 23 0 0 0 0 0 69 0 21
0 0 0 0 72 0 0 13 96 0 0
0 10 0 0 0 0 0 90 0 0
0 0 0 27 28 0 0 0 0
0 16 0 0 0 41 0 0
0 86 0 34 38 33 0
0 0 0 0 0 0
0 0 0 47 0
0 0 0 0
0 0 0
0 20
0
0 0 3 71 0 0 0 46 0 84 36 0 0 10 68 0 0 0 0 85 0
0 0 0 0 0 0 0 0 0 0 0 56 0 0 0 0 0 0 0 68
0 0 0 42 0 0 61 0 0 72 0 76 0 0 0 0 0 82 0
0 23 0 92 92 0 0 23 78 100 0 0 0 0 1 0 57 0
0 0 49 0 0 0 0 0 0 0 4 0 0 0 54 11 0
0 0 0 0 0 0 0 0 0 0 0 0 0 0 66 0
0 0 0 91 0 77 0 0 0 0 0 0 33 0 0
0 0 70 0 7 0 0 0 0 29 0 0 0 0
0 0 0 65 0 57 13 1 0 44 0 0 0
0 43 0 0 0 75 60 0 0 0 0 0
0 69 2 0 0 0 0 67 0 0 0
0 0 0 63 0 0 0 16 0 0
0 35 0 0 0 29 0 0 0
0 0 0 0 0 42 0 0
0 0 0 0 0 0 0
0 0 0 42 0 0
0 0 0 0 0
0 0 0 4
0 0 0
0 7
0
0 0 0 0 0 0 0 0 0 0 0 55 0 0 78 91 0 20 0 63
0 0 95 0 61 0 0 0 0 0 0 0 0 49 9 3 1 5 84
0 0 4 9 0 0 0 0 55 0 0 0 0 0 0 0 0 0
0 0 0 0 0 0 0 0 0 0 0 0 0 0 0 0 0
0 0 0 0 0 0 0 0 0 0 0 0 0 0 0 0
0 0 0 0 0 0 98 0 0 0 0 0 0 0 0
0 0 0 0 63 0 0 0 0 0 0 0 66 52
0 0 0 93 0 51 0 0 0 0 65 0 0
0 0 0 81 0 0 0 0 14 9 0 0
0 84 0 0 0 0 0 0 0 0 38
0 0 0 0 39 0 0 0 0 0
0 78 2 0 0 0 0 82 30
0 0 0 66 21 0 0 0
0 2 0 0 0 44 0
0 0 0 0 60 0
0 0 0 0 0
0 0 0 0
0 7 0
0 0
0
0 0 0 49 20 32 0 0 0 0 0 0 0 0 0 54 17 0 0
0 0 0 0 0 0 0 5 0 0 0 0 24 0 3 0 59 0
0 0 0 0 0 38 0 26 52 0 0 0 0 0 0 92 0
0 0 27 0 68 0 0 0 67 0 0 0 45 0 0 0
0 17 0 0 0 0 16 5 0 0 0 0 0 0 0
0 0 100 26 0 0 0 18 0 0 52 0 0 0
0 0 78 0 0 0 0 29 22 0 0 0 0
0 0 0 0 0 0 11 0 0 15 0 0
0 46 0 36 0 0 0 0 0 0 0
0 54 0 0 2 0 31 0 44 0
0 90 50 0 13 0 0 0 49
0 39 0 0 0 0 0 0
0 0 0 0 69 47 0
0 0 0 0 83 0
0 52 0 0 0
0 0 0 0
0 0 0
0 0
0
0 0 0 0 0 0 0 0 88 47 0 16 57 0 73 0 0 40
0 0 0 56 37 0 0 0 0 0 0 0 2 0 0 0 0
0 0 0 0 0 61 0 0 0 0 0 85 0 0 0 0
0 0 0 0 0 17 0 71 0 0 0 0 0 66 0
0 45 0 0 0 43 0 70 0 0 0 0 0 0
0 75 0 0 0 0 0 84 0 0 0 0 0
0 68 0 84 0 0 0 0 0 0 0 9
0 0 20 75 96 0 37 0 8 0 0
0 0 53 0 0 51 0 0 6 0
0 0 0 0 37 91 26 0 0
0 0 9 0 0 36 0 0
0 0 26 0 0 86 0
0 20 0 0 0 0
0 73 0 0 0
0 0 0 0
0 0 0
0 72
0
0 50 0 37 46 39 88 5 28 0 0 0 0 0 0 0 0
0 0 0 27 0 17 6 0 0 0 97 81 0 0 0 0
0 0 0 0 0 0 0 0 0 0 0 0 95 0 14
0 0 58 0 0 0 0 0 50 0 0 0 0 0
0 0 5 0 0 0 0 0 78 0 28 67 0
0 0 0 20 0 0 79 0 0 0 0 0
0 0 0 0 39 35 0 0 0 0 0
0 0 75 12 27 0 7 3 0 0
0 0 0 66 0 0 0 12 0
0 29 0 21 0 0 0 0
0 99 0 83 10 0 59
0 0 85 49 0 93
0 33 23 0 0
0 66 0 0
0 0 75
0 0
0
0 0 0 66 0 17 49 0 1 76 55 66 0 70 0 78
0 0 0 49 0 7 0 0 0 0 0 90 0 44 0
0 0 0 0 0 0 0 0 0 0 0 63 18 0
0 0 0 0 0 0 77 0 14 0 50 0 0
0 0 0 44 0 0 0 75 0 0 0 12
0 0 0 0 0 0 0 40 0 0 0
0 20 0 0 0 0 59 0 0 0
0 0 0 0 62 0 24 0 66
0 0 0 0 26 0 0 0
0 0 0 0 0 0 0
0 0 0 0 30 0
0 0 0 0 0
0 0 67 0
0 0 15
0 0
0
0 0 34 24 0 0 0 12 0 0 0 0 94 0 5
0 0 0 0 0 0 0 0 63 42 21 32 0 0
0 94 0 38 0 0 0 0 0 0 89 4 0
0 0 6 0 0 0 0 0 2 0 67 0
0 52 6 0 0 0 0 0 0 0 74
0 17 0 0 0 0 0 70 0 0
0 0 0 0 0 57 0 0 0
0 20 0 0 0 0 0 0
0 0 0 97 0 0 0
0 0 0 24 0 0
0 0 0 0 0
0 61 48 0
0 0 0
0 0
0
0 0 0 0 0 83 0 58 98 0 0 0 0 0
0 0 0 0 0 5 0 0 0 62 0 14 0
0 0 59 61 40 0 0 0 0 46 0 60
0 56 0 0 0 80 52 0 0 19 13
0 4 0 0 0 0 0 17 0 0
0 0 0 0 0 0 0 0 0
0 0 0 0 0 0 0 0
0 0 0 0 0 0 0
0 0 0 66 20 59
0 0 0 0 0
0 0 0 67
0 0 0
0 0
0
0 0 0 0 0 0 0 0 0 13 0 0 0
0 0 34 0 0 0 0 0 0 0 0 0
0 0 0 56 79 0 0 0 0 0 0
0 0 0 0 44 0 0 0 0 0
0 0 0 0 0 0 0 0 54
0 0 3 0 75 0 0 0
0 0 0 14 0 0 0
0 78 0 0 0 39
0 0 22 0 0
0 39 2 78
0 0 0
0 7
0
0 0 12 22 0 55 0 0 0 0 0 0
0 0 0 0 0 100 69 0 0 0 78
0 71 0 0 0 0 0 67 0 0
0 4 5 0 0 98 0 49 0
0 0 16 72 0 0 0 70
0 0 0 0 0 0 0
0 0 8 0 0 0
0 0 0 0 0
0 0 0 63
0 14 100
0 0
0
0 0 0 0 0 0 30 0 0 48 0
0 19 0 11 0 0 0 0 0 0
0 76 0 0 37 10 0 0 0
0 0 0 0 0 42 40 0
0 35 0 0 99 0 0
0 0 0 0 0 0
0 61 0 0 14
0 47 0 0
0 26 0
0 31
0
0 0 96 13 0 0 0 54 0 24
0 98 81 0 0 0 5 0 0
0 0 29 0 0 0 0 0
0 0 0 0 96 13 0
0 0 0 0 49 43
0 0 0 0 0
0 0 0 0
0 0 0
0 0
0
0 0 0 0 0 43 21 0 0
0 74 0 0 0 0 0 0
0 0 0 0 0 0 0
0 76 0 0 12 0
0 0 0 90 82
0 0 0 23
0 0 0
0 0
0
0 0 0 0 6 0 53 0
0 11 0 0 0 0 25
0 61 99 0 52 0
0 0 65 0 0
0 0 0 0
0 0 0
0 0
0
0 0 0 78 0 0 13
0 0 0 38 0 0
0 0 0 33 0
0 18 0 0
0 49 0
0 0
0
0 24 14 0 0 0
0 0 0 0 0
0 0 0 0
0 0 0
0 87
0
0 63 0 0 0
0 0 0 0
0 18 0
0 46
0
0 0 0 0
0 0 48
0 0
0
0 0 0
0 41
0
0 0
0
0
5312 5891 4055 5669 5530 5517 6429 5196 4761 5003 5146 5899 5846 4647 5149 5251 5540 5762 5542 4925 5190 6231 5702 5298 5597 4604 5614 5585 5124 4887
344.09716599190284 149.36982065553494 98.47857142857143 794.5189393939394 165.1114081996435 158.14496314496313 375.72077922077926 389.7 172.89947368421053 304.5304347826087 246.57916666666665 200.5142543859649 175.7418213969938 152.6550724637681 327.0310810810811 213.321875 226.78362573099415 248.6577380952381 165.76517857142858 159.51417004048585 162.77727272727273 228.87993421052633 1013.6888888888889 137.8596837944664 205.59155701754386 636.078947368421 287.7175 122.88080270793037 150.58454106280192 242.26153846153846
